p td 80 79
0 1
0 2
0 4
0 5
0 6
0 8
0 10
0 12
0 16
0 43
0 52
0 61
0 62
0 65
0 76
1 3
1 11
1 17
1 21
1 24
1 30
1 32
1 35
1 37
1 39
1 41
1 56
2 13
2 15
2 19
2 20
2 23
2 25
2 26
2 27
2 31
2 40
2 42
2 49
2 53
2 55
2 59
2 72
2 78
3 36
4 46
4 50
5 7
5 9
6 29
6 71
8 58
10 14
10 22
12 18
12 28
12 47
12 48
16 44
16 79
25 77
26 34
26 38
26 57
27 68
28 33
28 54
29 66
30 67
30 70
35 51
39 60
40 45
41 73
45 63
56 74
58 69
62 64
62 75
